Version identifier: 12.10.0.0 | 2019-11-26 | 843d4de
CPXPARAM_WorkMem                                 28672
Tried aggregator 2 times.
Aggregator did 45 substitutions.
Reduced MIP has 153 rows, 180 columns, and 705 nonzeros.
Reduced MIP has 180 binaries, 0 generals, 0 SOSs, and 0 indicators.
Presolve time = 0,00 sec. (0,68 ticks)
Found incumbent of value 135,000000 after 0,00 sec. (1,10 ticks)
Probing time = 0,00 sec. (0,25 ticks)
Tried aggregator 1 time.
Detecting symmetries...
MIP Presolve eliminated 30 rows and 0 columns.
MIP Presolve added 60 rows and 0 columns.
Reduced MIP has 183 rows, 180 columns, and 735 nonzeros.
Reduced MIP has 180 binaries, 0 generals, 0 SOSs, and 0 indicators.
Presolve time = 0,00 sec. (0,85 ticks)
Probing time = 0,00 sec. (0,24 ticks)
Clique table members: 495.
MIP emphasis: balance optimality and feasibility.
MIP search method: dynamic search.
Parallel mode: deterministic, using up to 16 threads.
Root relaxation solution time = 0,00 sec. (0,60 ticks)

        Nodes                                         Cuts/
   Node  Left     Objective  IInf  Best Integer    Best Bound    ItCnt     Gap

*     0+    0                          135,0000        0,0000           100,00%
*     0+    0                          102,0000        0,0000           100,00%
*     0+    0                           98,0000        0,0000           100,00%
      0     0       45,0000   153       98,0000       45,0000       69   54,08%
      0     0       45,0170   153       98,0000     Cuts: 150      149   54,06%
      0     0       45,9909   153       98,0000     Cuts: 146      187   53,07%
      0     0       46,4443   153       98,0000     Cuts: 147      217   52,61%
      0     0       46,6990   153       98,0000     Cuts: 145      239   52,35%
      0     0       46,9065   153       98,0000     Cuts: 145      276   52,14%
      0     0       46,9815   153       98,0000      Cuts: 99      304   52,06%
      0     0       47,0621   153       98,0000      Cuts: 88      316   51,98%
      0     0       47,3115   153       98,0000   ZeroHalf: 8      345   51,72%
      0     0       47,3670   153       98,0000      Cuts: 95      380   51,67%
      0     0       47,4396   153       98,0000   ZeroHalf: 9      411   51,59%
      0     0       47,6515   153       98,0000     Cuts: 104      446   51,38%
*     0+    0                           97,0000       47,6515            50,87%
      0     0       47,6819   153       97,0000   ZeroHalf: 6      466   50,84%
      0     0       47,7432   153       97,0000      Cuts: 27      497   50,78%
      0     0       47,8191   153       97,0000      Cuts: 22      546   50,70%
      0     0       47,8684   153       97,0000      Cuts: 63      585   50,65%
      0     0       47,8899   153       97,0000      Cuts: 16      605   50,63%
*     0+    0                           89,0000       47,8899            46,19%
      0     0       47,9085   153       89,0000      Cuts: 15      615   34,16%
      0     0       49,0059   153       89,0000      Cuts: 15      704   34,16%
      0     0       49,4354   153       89,0000     Cuts: 119      764   34,16%
      0     2       49,4354   180       89,0000       61,4500      764   30,96%
Elapsed time = 0,33 sec. (158,36 ticks, tree = 0,02 MB, solutions = 5)

Clique cuts applied:  80
Cover cuts applied:  166
Flow cuts applied:  7
Mixed integer rounding cuts applied:  74
Zero-half cuts applied:  13
Lift and project cuts applied:  5
Gomory fractional cuts applied:  12

Root node processing (before b&c):
  Real time             =    0,31 sec. (158,00 ticks)
Parallel b&c, 16 threads:
  Real time             =    0,35 sec. (182,31 ticks)
  Sync time (average)   =    0,15 sec.
  Wait time (average)   =    0,00 sec.
                          ------------
Total (root+branch&cut) =    0,66 sec. (340,31 ticks)
